0
117
110
72
107
160
160
175
187
10
66
107
56
168
131
80
21
142
176
175
59
119
155
181
68
45
155
27
127
111
28
28
152
183
69
156
36
38
61
8
169
99
169
183
104
126
45
118
165
63
113
58
182
35
92
128
26
190
99
161
8
72
159
196
76
58
47
10
100
181
101
141
188
7
185
166
29
18
187
120
134
8
45
176
35
4
119
197
89
34
17
169
16
91
173
35
1
111
1
36
130
